
  32    4
  10   10   10   10

   0   0   0   0   0   1 2 
   1  10  10  10  10   1 3 
   2  10  10  10  10   1 4 
   3  10  10  10  10   1 5 
   3  10  10  10  10   2 23 6 
   6  10  10  10  10   1 7 
   4  10  10  10  10   1 8 
   3  10  10  10  10   2 14 9 
   6  10  10  10  10   2 17 10 
   9  10  10  10  10   2 31 11 
   9  10  10  10  10   1 12 
   9  10  10  10  10   1 13 
   6  10  10  10  10   1 15 
   8  10  10  10  10   1 15 
   6  10  10  10  10   1 16 
  10  10  10  10  10   1 18 
   4  10  10  10  10   1 18 
   3  10  10  10  10   1 19 
   4  10  10  10  10   2 24 20 
   1  10  10  10  10   2 30 21 
   2  10  10  10  10   1 22 
   4  10  10  10  10   1 25 
   5  10  10  10  10   1 25 
   3  10  10  10  10   2 30 27 
   3  10  10  10  10   1 26 
   3  10  10  10  10   1 27 
   8  10  10  10  10   1 28 
   4  10  10  10  10   1 29 
   4  10  10  10  10   1 32
   2  10  10  10  10   1 32
   9  10  10  10  10   1 32
   0   0   0   0   0   0 
